phon nofreq 
cell
3.85   3.85   3.85  60.000000  60.000000  60.000000
fractional
Zn 0.000000 0.000000 0.000000 
S 0.25 0.25 0.25
species
Zn core 2.0000
S core 1.357
S shell -3.357
sw2
Zn core S shell A 1.0 B 0.0 2.4
S shell S shell A_1 1.0 B_1 0.0 3.9
Zn core Zn core A_2 1.0 B_2 0.0 3.9
sw3
Zn core S shell S shell C 109.47 D D 0.0 2.4 0.0 2.4 0.0 3.9
shrink
1 1 1
dispersion 1 200
#0. 0. 0. to 0.0 0.5 0.0
0. 0. 0. to 0.5 0.0 0.5 to 0.5 0.25 0.75 to 0.375 0.375 0.75 to 0.0 0.0 0.0
output phon xyz1

#0. 0. 0. to 0.5 0.0 0.5 to 1.0 1.0 1.0 to 0.5 0.5 0.5
0 0 0 to 0.025 0 0.025 to 0.05 0 0.05 to 0.075 0 0.075 to 0.1 0 0.1 to 0.125 0 0.125 to 0.15 0 0.15 to 0.175 0 0.175 to 0.2 0 0.2 to 0.225 0 0.225 to 0.25 0 0.25 to 0.275 0 0.275 to 0.3 0 0.3 to 0.325 0 0.325 to 0.35 0 0.35 to 0.375 0 0.375 to 0.4 0 0.4 to 0.425 0 0.425 to 0.45 0 0.45 to 0.475 0 0.475 to 0.5 0 0.5 to 0.525 0.05 0.525 to 0.55 0.1 0.55 to 0.575 0.15 0.575 to 0.6 0.2 0.6 to 0.625 0.25 0.625 to 0.65 0.3 0.65 to 0.675 0.35 0.675 to 0.7 0.4 0.7 to 0.725 0.45 0.725 to 0.75 0.5 0.75 to 0.775 0.55 0.775 to 0.8 0.6 0.8 to 0.825 0.65 0.825 to 0.85 0.7 0.85 to 0.875 0.75 0.875 to 0.9 0.8 0.9 to 0.925 0.85 0.925 to 0.95 0.9 0.95 to 0.975 0.95 0.975 to 1 1 1 to 0.975 0.975 0.975 to 0.95 0.95 0.95 to 0.925 0.925 0.925 to 0.9 0.9 0.9 to 0.875 0.875 0.875 to 0.85 0.85 0.85 to 0.825 0.825 0.825 to 0.8 0.8 0.8 to 0.775 0.775 0.775 to 0.75 0.75 0.75 to 0.725 0.725 0.725 to 0.7 0.7 0.7 to 0.675 0.675 0.675 to 0.65 0.65 0.65 to 0.625 0.625 0.625 to 0.6 0.6 0.6 to 0.575 0.575 0.575 to 0.55 0.55 0.55 to 0.525 0.525 0.525 to 0.5 0.5 0.5

#buckingham 
#Zn core S shell 213.20 0.475 0.0 0.0 15
#S shell S shell 11413.09 0.153 0.0 0.0 15

#lennard 9 6
#Zn core S shell 664.35 10.54 0.0 15
#S shell S shell 0.0  129.18  0.0 15 

#three
#Zn core S shell S shell 0.778 109.47 0.0 15 0.0 15 0.0 15

#spring
#S 27.690

#twist + 1

