Phon freq 
cell
   6.515   6.477   6.511  60.175  80.608  70.846

fractional
Cu 0.1401 	0.0301 	0.1691
Cu 0.1402 	0.373 	0.4963
Cu 0.6401 	0.1992 	0.8309
Cu 0.6402 	0.8694 	0.5037
S 0.0076 	0.4115 	0.1666
S 0.0122 	0.7453 	0.504
S 0.0141 	0.0866 	0.8308
S 0.5076 	0.5781 	0.8334
S 0.5122 	0.2493 	0.496
S 0.5141 	0.9175 	0.1692
Ge 0.1208 	0.7235 	0.825
Ge 0.6208 	0.5485 	0.175

species
Cu core 2.0000
Ge core 2.0000
S  core  1.357
S  shell -3.357

buckingham 
Cu core S shell 213.20 0.475 0.0 0.0 15
Ge core S shell 213.20 0.475 0.0 0.0 15
Cu core Ge core 213.20 0.475 0.0 0.0 15
S shell S shell 11413.09 0.153 0.0 0.0 15

lennard 9 6
Cu core S shell 664.35 10.54 0.0 15
Ge core S shell 213.20 0.475 0.0 0.0 15
Cu core Ge core 213.20 0.475 0.0 0.0 15
S shell S shell 0.0  129.18  0.0 15 

#three
#Zn core S shell S shell 0.778 109.47 0.0 2.4 0.0 2.4 0.0 3.9

spring
S 27.690

#twist + 1

shrink
1 1 1

dispersion 1 200
#0. 0. 0. to 0.0 0.5 0.0
0. 0. 0. to 0.5 0.0 0.5 to 0.5 0.25 0.75 to 0.375 0.375 0.75 to 0.0 0.0 0.0
#0. 0. 0. to 0.5 0.0 0.5 

output phon xyz


